
Gurobi 7.5.2 (linux64, Python) logging started Wed Feb 21 13:35:55 2018

Academic license - for non-commercial use only

Gurobi 7.5.2 (linux64, Python) logging started Wed Feb 21 13:38:11 2018

Academic license - for non-commercial use only
